Route #1: 27 32 1 22 31 28 3 20 35 36 29 21
Route #2: 12
Route #3: 11 38 9 34 30 39 10 33 15 17
Route #4: 5 37 44 42 19 41 40 13 4 6
Route #5: 14 25 18
Route #6: 16 2 8 26 7 23 24 43
cost: 591.6294981026216
